95
394
207
438
82
26
337
177
470
145
488
327
76
10
99
402
141
447
401
159
84
75
292
295
363
31
236
61
226
265
35
30
114
302
126
77
46
276
462
350
109
274
340
327
322
107
308
130
220
209
26
410
366
350
221
397
486
393
157
254
177
186
322
273
74
316
312
327
119
283
161
74
441
24
56
142
43
367
275
23
488
338
209
5
381
363
35
385
145
52
33
21
235
271
472
33
489
